dates = {'2021-11-04','2021-11-05','2021-11-06','2021-11-07','2021-11-08','2021-11-09','2021-11-10','2021-11-11','2021-11-12','2021-11-13','2021-11-14','2021-11-15','2021-11-16','2021-11-17','2021-11-18','2021-11-19','2021-11-20','2021-11-21','2021-11-22','2021-11-23','2021-11-24','2021-11-25','2021-11-26','2021-11-27','2021-11-28','2021-11-29','2021-11-30','2021-12-01','2021-12-02','2021-12-03'};

daysOfWeek = [Thursday,Friday,Saturday,Sunday,Monday,Tuesday,Wednesday,Thursday,Friday,Saturday,Sunday,Monday,Tuesday,Wednesday,Thursday,Friday,Saturday,Sunday,Monday,Tuesday,Wednesday,Thursday,Friday,Saturday,Sunday,Monday,Tuesday,Wednesday,Thursday,Friday];

% For this week, how many people will be here.
numPeople = [52,59,44,44,54,51,51,51,51,51,54,65,62,74,83,93,84,88
,85,95,95,105,105,108,108,108,105,105,105,115];

% Physical workers need 50 to 100 % more nutrients per day.
numPhysicalWorkers = [20.5,23.5,23.5,22.5,29.0,28.0,28.0,28.0,28.0,28.0,28.0,33.0,33.0,37.5
,37.5,38.0,37.0,37.0,37.0,40.0,40.0,41.0,41.0,41.0,41.0,41.0,41.0,41.0
,41.0,45.0];

% Males need +25% more nutrients per day.
numMen = [46,50,50,36,42,41,38,38,38,38,40,47,47,52,60,71,71,65,65,72,72,81,81,84
,84,84,84,81,81,86];

% Num people who do not eat categories. contains = {none, meat, milk, gluten, egg, nut, seed, sugars}
numRefusals = [| 0,0,3,0,2,2,3,0 | 0,0,0,5,1,5,0,1 | 0,0,1,7,0,3,0,4 | 0,0,1,7,0,3,0,4 | 0,0,1,1,0,0,0,8 | 0,1,0,8,7,0,3,4 | 0,1,0,8,7,0,3,4 | 0,1,0,8,7,0,3,4 | 0,1,0,8,7,0,3,4 | 0,1,0,8,7,0,3,4 | 0,0,0,2,6,10,5,3 | 0,0,0,1,0,8,1,0 | 0,0,4,2,0,3,0,7 | 0,0,4,0,0,0,3,12 | 0,0,2,1,0,0,9,2 | 0,6,4,1,0,1,25,2 | 0,5,0,0,13,0,3,1 | 0,0,0,0,11,0,0,4 | 0,0,7,0,8,0,2,0 | 0,4,0,6,0,8,19,7 | 0,4,0,6,0,8,19,7 | 0,12,1,0,22,0,0,0 | 0,12,1,0,22,0,0,0 | 0,0,10,0,19,2,18,0 | 0,0,10,0,19,2,18,0 | 0,0,10,0,19,2,18,0 | 0,0,15,10,0,0,0,9 | 0,0,15,10,0,0,0,9 | 0,0,15,10,0,0,0,9 | 0,14,0,0,1,0,0,17 |];

